NAME           DISTRIBUTED
ROWS
 N  COST
 G  RXN0
 G  RXN1
 G  RXN2
COLUMNS
    X0        COST      1
    X0        RXN1      1
    X0        RXN0      1
    X0        RXN2      1
RHS
    RHS1      RXN1      1
    RHS1      RXN0      1
    RHS1      RXN2      1
BOUNDS
 BV BND1      X0
ENDATA
